c Reduced graph for GEOM50b generated by Cyril Grelier
p edge 46 233
e 1 2
e 1 3
e 1 6
e 1 7
e 1 9
e 1 16
e 1 17
e 1 20
e 1 21
e 1 23
e 1 37
e 1 39
e 1 41
e 1 44
e 2 5
e 2 16
e 2 17
e 2 18
e 2 19
e 2 20
e 2 21
e 2 25
e 2 37
e 2 38
e 2 40
e 2 43
e 3 6
e 3 7
e 3 12
e 3 16
e 3 17
e 3 21
e 3 28
e 3 36
e 3 37
e 3 39
e 3 41
e 3 44
e 4 10
e 4 14
e 4 18
e 4 20
e 4 22
e 4 24
e 4 27
e 4 29
e 4 34
e 4 37
e 4 38
e 4 40
e 4 42
e 5 8
e 5 13
e 5 16
e 5 19
e 5 20
e 5 21
e 5 25
e 5 31
e 5 35
e 5 40
e 5 43
e 5 45
e 6 7
e 6 12
e 6 16
e 6 17
e 6 28
e 6 33
e 6 36
e 6 37
e 6 39
e 6 42
e 7 12
e 7 16
e 7 17
e 7 28
e 7 33
e 7 36
e 7 39
e 7 44
e 8 11
e 8 13
e 8 19
e 8 25
e 8 26
e 8 30
e 8 31
e 8 43
e 8 45
e 9 11
e 9 15
e 9 17
e 9 23
e 9 26
e 9 32
e 9 41
e 9 44
e 9 46
e 10 14
e 10 18
e 10 22
e 10 24
e 10 27
e 10 34
e 10 38
e 10 40
e 11 19
e 11 23
e 11 26
e 11 30
e 11 41
e 11 45
e 11 46
e 12 28
e 12 29
e 12 33
e 12 39
e 12 42
e 13 19
e 13 25
e 13 30
e 13 31
e 13 43
e 13 45
e 14 24
e 14 27
e 14 34
e 14 38
e 15 32
e 16 17
e 16 18
e 16 19
e 16 20
e 16 21
e 16 22
e 16 37
e 16 39
e 16 41
e 17 20
e 17 21
e 17 23
e 17 37
e 17 39
e 17 41
e 17 44
e 18 20
e 18 21
e 18 22
e 18 24
e 18 27
e 18 29
e 18 37
e 18 38
e 18 40
e 18 42
e 19 21
e 19 23
e 19 25
e 19 26
e 19 30
e 19 31
e 19 43
e 19 45
e 20 21
e 20 22
e 20 24
e 20 37
e 20 38
e 20 40
e 21 23
e 21 37
e 21 41
e 21 43
e 22 24
e 22 27
e 22 29
e 22 37
e 22 38
e 22 42
e 23 26
e 23 30
e 23 32
e 23 41
e 23 46
e 24 34
e 24 35
e 24 37
e 24 38
e 24 40
e 25 31
e 25 35
e 25 40
e 25 43
e 25 45
e 26 30
e 26 32
e 26 41
e 26 46
e 27 29
e 27 34
e 27 38
e 27 42
e 28 33
e 28 36
e 28 39
e 28 44
e 29 33
e 29 37
e 29 42
e 30 45
e 30 46
e 31 35
e 31 43
e 31 45
e 32 41
e 32 44
e 32 46
e 33 39
e 33 42
e 34 38
e 35 40
e 35 43
e 36 39
e 36 44
e 37 38
e 37 39
e 37 40
e 37 42
e 38 40
e 39 42
e 41 44
e 43 45
